9
0 76 91 6 23 98 10 30 33 
15 0 14 8 97 6 50 38 74 
41 21 0 28 46 4 88 98 28 
3 25 57 0 51 14 95 29 78 
18 50 59 2 0 45 40 4 7 
94 56 6 35 81 0 2 41 51 
75 75 100 51 55 95 0 1 20 
28 56 67 11 67 73 43 0 65 
71 62 9 14 85 10 31 63 0 
